NAME : portgen-50-300
COMMENT : portgen N=50, seed=300
TYPE : TSP
DIMENSION : 50
EDGE_WEIGHT_TYPE : EUC_2D
NODE_COORD_SECTION
1 60 1227
2 2349 1835
3 198 2577
4 2900 833
5 2453 128
6 313 3034
7 1677 508
8 2636 589
9 1229 3112
10 1387 1058
11 993 148
12 2592 2950
13 3061 1459
14 2261 1316
15 71 1815
16 2507 755
17 368 2564
18 2401 2479
19 1317 195
20 1151 2338
21 642 1454
22 2042 2051
23 874 11
24 2835 3065
25 1718 1874
26 1737 2772
27 2917 1615
28 2166 2468
29 858 2947
30 2597 882
31 1259 2704
32 2844 114
33 2649 2022
34 991 2789
35 2797 2625
36 916 1327
37 1393 2676
38 2483 1384
39 394 976
40 783 592
41 601 2477
42 1881 2351
43 556 2965
44 1073 253
45 3078 378
46 1487 1691
47 561 1689
48 1421 2477
49 60 2529
50 2730 2653
